DATASET = "thpack5";
INSTANCE = "094";

WIDTH = 233;
HEIGHT = 220;
LENGTH = 587;

NO_OF_SHAPES = 12;
size = [|
  75,73,69 |
  66,56,40 |
  64,51,41 |
  90,52,28 |
  73,33,28 |
  91,76,60 |
  54,45,28 |
  107,81,56 |
  63,53,44 |
  88,75,50 |
  79,76,20 |
  116,71,66 |
|];

verticality = [|
  1,1,1 |
  1,1,1 |
  1,1,1 |
  0,1,1 |
  0,1,1 |
  1,1,1 |
  1,1,1 |
  1,1,1 |
  1,1,1 |
  1,1,1 |
  0,0,1 |
  1,1,1 |
|];

box_count = [
  8,
  12,
  14,
  15,
  16,
  13,
  9,
  12,
  6,
  11,
  9,
  5,
];
